o 1  1 2 3 0
o 2  1 -2 -3 0
o 3  -1 2 -3 0
o 4  -1 -2 3 0
o 5  3 4 -5 0
o 6  3 -4 5 0
o 7  -3 4 5 0
o 8  -3 -4 -5 0
o 9  1 2 4 5 0
o 10  1 2 -4 -5 0
o 11  1 -2 4 -5 0
o 12  1 -2 -4 5 0
o 13  -1 2 4 -5 0
o 14  -1 2 -4 5 0
o 15  -1 -2 4 5 0
o 16  -1 -2 -4 -5 0
o 17  1 2 4 -5 0
o 18  1 2 -4 5 0
o 19  1 -2 4 5 0
o 20  1 -2 -4 -5 0
o 21  -1 2 4 5 0
o 22  -1 2 -4 -5 0
o 23  -1 -2 4 -5 0
o 24  -1 -2 -4 5 0
a 25  1 2 4 0  l 9 17 0
a 26  1 2 -4 0  l 10 18 0
a 27  -1 2 4 0  l 13 21 0
a 28  -1 2 -4 0  l 14 22 0
a 29  1 -2 4 0  l 11 19 0
a 30  1 -2 -4 0  l 12 20 0
a 31  -1 -2 4 0  l 15 23 0
a 32  -1 -2 -4 0  l 16 24 0
a 33  1 4 0  l 25 29 0
a 34  1 -4 0  l 26 30 0
a 35  -1 4 0  l 27 31 0
a 36  -1 -4 0  l 28 32 0
a 37  4 0  l 33 35 0
a 38  -4 0  l 34 36 0
a 39  -4 0  l 38 0
a 40  0  l 39 37 0
d 25  1 2 4 0
d 26  1 2 -4 0
d 27  -1 2 4 0
d 28  -1 2 -4 0
d 29  1 -2 4 0
d 30  1 -2 -4 0
d 31  -1 -2 4 0
d 32  -1 -2 -4 0
d 33  1 4 0
d 34  1 -4 0
d 35  -1 4 0
d 36  -1 -4 0
d 37  4 0
d 38  -4 0
d 39  -4 0
f 1  2 1 3 0
f 2  -3 1 -2 0
f 3  2 -3 -1 0
f 4  -1 3 -2 0
f 5  3 4 -5 0
f 6  3 -4 5 0
f 7  4 5 -3 0
f 8  -4 -5 -3 0
f 9  2 1 4 5 0
f 10  2 1 -4 -5 0
f 11  1 4 -2 -5 0
f 12  1 5 -4 -2 0
f 13  2 -1 4 -5 0
f 14  2 -1 -4 5 0
f 15  4 5 -2 -1 0
f 16  -4 -5 -2 -1 0
f 17  4 2 1 -5 0
f 18  -4 2 1 5 0
f 19  1 4 -2 5 0
f 20  1 -4 -2 -5 0
f 21  2 -1 4 5 0
f 22  2 -1 -4 -5 0
f 23  4 -5 -1 -2 0
f 24  -4 5 -1 -2 0
f 40  0
